NAME : sim141.122898.tour
COMMENT : Length = 122898
COMMENT : Found by LKH [Keld Helsgaun] Sun Sep 16 06:32:00 2018
TYPE : TOUR
DIMENSION : 141
TOUR_SECTION
1
28
98
22
95
64
18
109
93
101
128
141
139
31
83
81
32
51
25
15
94
38
130
113
119
4
33
79
67
106
80
43
29
2
58
133
136
41
37
87
117
78
105
131
68
66
107
121
125
42
88
86
14
111
132
99
120
140
40
50
96
12
116
90
108
70
84
138
49
17
53
30
74
124
24
54
126
27
44
77
82
6
39
56
5
73
97
19
10
13
57
115
21
123
63
34
46
75
85
11
112
118
71
91
89
100
20
104
60
48
76
59
122
45
127
114
55
102
103
9
92
69
8
7
16
52
26
35
129
135
61
3
23
110
137
134
62
72
47
36
65
-1
EOF
